maximize
OBJ:100x0 + 100x1 + 100x2 + 100x3 + 100x4 + 100x5 + 100x6 + 100x7 + 100x8 + 100x9 + 100x10 + 100x11 + 100x12 + 100x13 + 100x14 + 100x15 + 100x16 + 100x17 + 100x18 + 100x19 + 100x20 + 100x21 + 100x22 + 100x23 + 100x24 + 100x25 + 100x26 + 100x27 + 100x28 + 100x29 + 100x30 + 100x31 + 100x32 + 100x33 + 100x34 + 100x35 + 100x36 + 100x37 + 100x38 + 100x39 + 100x40 + 100x41 + 100x42 + 100x43 + 100x44 + 100x45 + 100x46 + 100x47 + 100x48 + 100x49 + 100x50 + 100x51 + 100x52 + 100x53 + 100x54 + 100x55 + 100x56 + 100x57 + 100x58 + 100x59 + 100x60 + 100x61 + 100x62 + 100x63 + 100x64 + 100x65 + 100x66 + 100x67 - y55_57 - y36_53 - y26_30 - y28_58 - y17_67 - y28_67 - y18_44 - y8_9 - y9_63 - y29_32 - y0_5 - y40_41 - y48_54 - y11_14 - y29_50 - y21_46 - y0_23 - y21_55 - y41_51 - y2_32 - y25_34 - y44_47 - y25_43 - y14_15 - y15_16 - y15_25 - y9_49 - y28_62 - y48_49 - y29_45 - y40_54 - y21_50 - y40_63 - y10_22 - y25_29 - y54_65 - y33_42 - y2_36 - y25_38 - y51_59 - y2_54 - y3_19 - y32_55 - y22_32 - y13_51 - y14_28 - y32_64 - y43_64 - y16_56 - y1_67 - y36_43 - y28_39 - y7_16 - y36_61 - y5_55 - y28_57 - y17_66 - y6_47 - y40_49 - y10_26 - y10_44 - y2_40 - y3_14 - y22_27 - y35_46 - y51_63 - y14_23 - y16_60 - y17_43 - y47_56 - y5_50 - y36_65 - y47_65 - y21_22 - y6_33 - y29_35 - y9_66 - y6_42 - y6_51 - y10_12 - y10_21 - y2_17 - y20_53 - y10_30 - y2_26 - y20_62 - y25_28 - y3_9 - y51_58 - y24_41 - y14_18 - y1_48 - y35_50 - y24_59 - y1_66 - y5_27 - y36_51 - y5_45 - y28_47 - y28_56 - y6_19 - y58_66 - y27_60 - y6_37 - y42_58 - y8_65 - y19_65 - y30_65 - y39_43 - y20_39 - y39_52 - y12_53 - y12_62 - y13_27 - y51_53 - y24_36 - y32_49 - y13_45 - y24_45 - y35_45 - y24_54 - y36_37 - y5_31 - y28_33 - y9_29 - y5_40 - y9_47 - y58_61 - y42_44 - y27_55 - y50_57 - y6_32 - y50_66 - y8_60 - y19_60 - y31_34 - y10_11 - y39_47 - y2_16 - y20_52 - y31_52 - y39_65 - y12_57 - y16_18 - y24_31 - y53_67 - y1_38 - y35_40 - y43_53 - y16_36 - y1_56 - y35_58 - y5_17 - y1_65 - y38_51 - y57_64 - y5_35 - y9_33 - y7_63 - y58_65 - y30_46 - y42_57 - y8_64 - y30_64 - y42_66 - y0_60 - y11_60 - y20_38 - y12_34 - y4_30 - y39_60 - y12_61 - y1_24 - y13_26 - y24_35 - y16_31 - y34_67 - y13_44 - y24_44 - y37_63 - y9_10 - y38_46 - y57_59 - y15_53 - y5_30 - y26_62 - y8_32 - y19_32 - y27_45 - y19_41 - y30_41 - y11_37 - y19_50 - y8_59 - y42_61 - y11_55 - y12_20 - y31_33 - y0_64 - y23_29 - y39_46 - y20_42 - y31_42 - y20_51 - y4_34 - y1_10 - y4_43 - y23_56 - y45_53 - y24_30 - y16_26 - y34_62 - y45_62 - y56_62 - y16_35 - y14_65 - y37_67 - y5_16 - y15_48 - y49_50 - y46_63 - y38_59 - y18_53 - y27_31 - y18_62 - y8_27 - y8_36 - y30_36 - y0_32 - y19_45 - y19_54 - y0_50 - y11_50 - y12_15 - y4_11 - y11_59 - y23_24 - y39_41 - y31_37 - y41_60 - y52_60 - y33_65 - y12_42 - y1_5 - y1_23 - y37_44 - y53_61 - y56_57 - y1_32 - y22_64 - y45_66 - y14_60 - y37_62 - y5_11 - y15_43 - y38_45 - y57_58 - y18_39 - y26_52 - y18_48 - y49_63 - y7_57 - y18_57 - y27_35 - y11_18 - y19_31 - y0_27 - y8_49 - y19_49 - y30_49 - y11_45 - y41_46 - y0_54 - y12_19 - y41_55 - y20_32 - y33_51 - y52_55 - y4_24 - y44_60 - y23_37 - y25_65 - y45_52 - y53_65 - y3_46 - y64_65 - y3_64 - y15_29 - y37_66 - y7_25 - y18_25 - y18_34 - y15_56 - y26_56 - y18_52 - y27_30 - y0_13 - y7_61 - y11_13 - y30_35 - y8_44 - y19_44 - y21_63 - y60_63 - y44_46 - y12_23 - y41_59 - y52_59 - y44_64 - y2_58 - y25_60 - y34_38 - y3_41 - y14_41 - y34_56 - y37_43 - y14_50 - y56_65 - y3_59 - y14_59 - y37_61 - y18_20 - y59_67 - y18_47 - y0_8 - y18_56 - y8_21 - y19_21 - y0_17 - y40_53 - y8_30 - y6_60 - y11_26 - y21_58 - y52_54 - y25_37 - y4_14 - y10_48 - y2_44 - y10_66 - y22_31 - y14_27 - y3_45 - y14_45 - y3_54 - y15_19 - y37_56 - y3_63 - y15_28 - y26_37 - y7_33 - y17_65 - y28_65 - y29_39 - y8_16 - y48_52 - y0_12 - y29_48 - y48_61 - y6_55 - y2_39 - y10_52 - y25_50 - y33_63 - y22_26 - y2_57 - y3_22 - y3_31 - y3_40 - y22_53 - y14_49 - y15_23 - y7_19 - y36_55 - y7_28 - y36_64 - y47_64 - y28_60 - y9_56 - y29_34 - y8_11 - y9_65 - y0_7 - y48_56 - y0_16 - y11_16 - y40_52 - y29_61 - y21_57 - y62_67 - y25_27 - y33_49 - y25_45 - y3_8 - y10_56 - y25_54 - y32_53 - y51_66 - y2_61 - y3_26 - y13_58 - y14_44 - y16_63 - y36_41 - y15_18 - y36_50 - y7_23 - y59_61 - y17_55 - y28_55 - y5_62 - y6_27 - y21_25 - y0_2 - y6_36 - y6_45 - y40_47 - y21_43 - y10_15 - y21_61 - y2_20 - y54_58 - y20_65 - y51_52 - y32_48 - y43_48 - y51_61 - y43_57 - y24_53 - y32_66 - y43_66 - y1_60 - y13_62 - y35_62 - y16_67 - y28_32 - y7_9 - y36_45 - y55_58 - y36_54 - y47_54 - y17_50 - y28_50 - y5_57 - y21_29 - y61_65 - y6_40 - y29_42 - y21_38 - y29_51 - y40_51 - y21_47 - y2_6 - y39_64 - y62_66 - y20_60 - y32_34 - y32_43 - y24_39 - y35_39 - y32_52 - y13_48 - y35_48 - y16_44 - y1_55 - y16_53 - y13_66 - y17_27 - y36_49 - y6_8 - y47_58 - y28_54 - y28_63 - y27_67 - y21_42 - y10_14 - y10_23 - y39_59 - y2_19 - y20_55 - y23_51 - y2_28 - y12_60 - y13_25 - y2_37 - y4_56 - y23_60 - y43_56 - y16_39 - y1_50 - y13_52 - y16_48 - y1_59 - y35_61 - y5_20 - y5_29 - y17_31 - y36_44 - y57_67 - y17_40 - y9_45 - y5_56 - y6_21 - y6_30 - y42_51 - y21_28 - y2_5 - y20_41 - y31_41 - y2_14 - y31_50 - y62_65 - y12_46 - y54_61 - y12_55 - y13_20 - y32_33 - y23_64 - y16_25 - y51_55 - y13_38 - y35_38 - y43_51 - y1_45 - y16_52 - y5_15 - y65_66 - y17_26 - y5_33 - y5_42 - y21_23 - y30_53 - y42_55 - y8_62 - y39_40 - y10_13 - y11_67 - y23_32 - y31_45 - y39_58 - y12_41 - y23_41 - y13_15 - y16_20 - y4_64 - y34_65 - y43_46 - y13_42 - y45_65 - y1_49 - y16_47 - y17_30 - y28_30 - y9_26 - y26_60 - y9_35 - y7_65 - y8_39 - y19_48 - y27_61 - y30_57 - y20_22 - y11_53 - y8_66 - y19_66 - y20_31 - y0_62 - y39_44 - y12_36 - y23_36 - y31_49 - y1_8 - y4_41 - y1_26 - y16_24 - y45_60 - y35_37 - y1_44 - y38_48 - y38_57 - y15_64 - y38_66 - y8_25 - y19_34 - y30_34 - y19_43 - y30_43 - y42_45 - y19_52 - y19_61 - y20_26 - y30_61 - y4_18 - y11_66 - y20_44 - y4_27 - y1_3 - y45_46 - y53_59 - y4_54 - y34_55 - y45_55 - y3_67 - y46_65 - y57_65 - y38_61 - y49_61 - y7_55 - y18_55 - y8_29 - y19_29 - y11_25 - y27_51 - y0_34 - y30_47 - y19_56 - y30_56 - y11_52 - y52_62 - y31_39 - y44_58 - y12_35 - y23_35 - y44_67 - y1_7 - y22_48 - y34_50 - y1_25 - y3_53 - y26_36 - y5_13 - y46_51 - y15_45 - y38_47 - y15_54 - y38_56 - y26_63 - y19_33 - y40_65 - y19_42 - y30_42 - y30_51 - y20_25 - y60_61 - y4_17 - y12_30 - y41_66 - y4_35 - y22_34 - y1_11 - y25_67 - y34_45 - y3_48 - y14_48 - y37_50 - y15_22 - y26_31 - y7_27 - y26_49 - y26_58 - y8_19 - y27_32 - y18_63 - y0_24 - y29_60 - y30_37 - y0_33 - y11_33 - y0_42 - y33_39 - y60_65 - y4_12 - y10_46 - y10_55 - y33_57 - y25_53 - y10_64 - y33_66 - y1_6 - y34_40 - y3_43 - y14_43 - y37_54 - y22_65 - y3_61 - y14_61 - y55_62 - y7_22 - y47_67 - y15_44 - y7_40 - y18_49 - y29_46 - y8_23 - y19_23 - y0_19 - y11_19 - y21_51 - y0_28 - y29_64 - y21_60 - y33_34 - y41_47 - y25_30 - y4_7 - y33_43 - y41_56 - y2_46 - y2_55 - y34_35 - y14_29 - y14_38
 Subject to
C1: x0+x1 <=1 
C2: x0+x2-y0_2 <=1 
C3: x0+x4 <=1 
C4: x0+x5-y0_5 <=1 
C5: x0+x6 <=1 
C6: x0+x7-y0_7 <=1 
C7: x0+x8-y0_8 <=1 
C8: x0+x9 <=1 
C9: x0+x12-y0_12 <=1 
C10: x0+x13-y0_13 <=1 
C11: x0+x14 <=1 
C12: x0+x16-y0_16 <=1 
C13: x0+x17-y0_17 <=1 
C14: x0+x19-y0_19 <=1 
C15: x0+x20 <=1 
C16: x0+x21 <=1 
C17: x0+x22 <=1 
C18: x0+x23-y0_23 <=1 
C19: x0+x24-y0_24 <=1 
C20: x0+x25 <=1 
C21: x0+x27-y0_27 <=1 
C22: x0+x28-y0_28 <=1 
C23: x0+x30 <=1 
C24: x0+x32-y0_32 <=1 
C25: x0+x33-y0_33 <=1 
C26: x0+x34-y0_34 <=1 
C27: x0+x35 <=1 
C28: x0+x37 <=1 
C29: x0+x39 <=1 
C30: x0+x40 <=1 
C31: x0+x42-y0_42 <=1 
C32: x0+x47 <=1 
C33: x0+x48 <=1 
C34: x0+x49 <=1 
C35: x0+x50-y0_50 <=1 
C36: x0+x52 <=1 
C37: x0+x53 <=1 
C38: x0+x54-y0_54 <=1 
C39: x0+x57 <=1 
C40: x0+x58 <=1 
C41: x0+x60-y0_60 <=1 
C42: x0+x61 <=1 
C43: x0+x62-y0_62 <=1 
C44: x0+x63 <=1 
C45: x0+x64-y0_64 <=1 
C46: x0+x65 <=1 
C47: x0+x66 <=1 
C48: x0+x67 <=1 
C49: x1+x2 <=1 
C50: x1+x3-y1_3 <=1 
C51: x1+x4 <=1 
C52: x1+x5-y1_5 <=1 
C53: x1+x6-y1_6 <=1 
C54: x1+x7-y1_7 <=1 
C55: x1+x8-y1_8 <=1 
C56: x1+x9 <=1 
C57: x1+x10-y1_10 <=1 
C58: x1+x11-y1_11 <=1 
C59: x1+x20 <=1 
C60: x1+x22 <=1 
C61: x1+x23-y1_23 <=1 
C62: x1+x24-y1_24 <=1 
C63: x1+x25-y1_25 <=1 
C64: x1+x26-y1_26 <=1 
C65: x1+x28 <=1 
C66: x1+x32-y1_32 <=1 
C67: x1+x34 <=1 
C68: x1+x35 <=1 
C69: x1+x38-y1_38 <=1 
C70: x1+x42 <=1 
C71: x1+x44-y1_44 <=1 
C72: x1+x45-y1_45 <=1 
C73: x1+x46 <=1 
C74: x1+x47 <=1 
C75: x1+x48-y1_48 <=1 
C76: x1+x49-y1_49 <=1 
C77: x1+x50-y1_50 <=1 
C78: x1+x51 <=1 
C79: x1+x53 <=1 
C80: x1+x54 <=1 
C81: x1+x55-y1_55 <=1 
C82: x1+x56-y1_56 <=1 
C83: x1+x59-y1_59 <=1 
C84: x1+x60-y1_60 <=1 
C85: x1+x61 <=1 
C86: x1+x62 <=1 
C87: x1+x64 <=1 
C88: x1+x65-y1_65 <=1 
C89: x1+x66-y1_66 <=1 
C90: x1+x67-y1_67 <=1 
C91: x2+x3 <=1 
C92: x2+x5-y2_5 <=1 
C93: x2+x6-y2_6 <=1 
C94: x2+x8 <=1 
C95: x2+x9 <=1 
C96: x2+x10 <=1 
C97: x2+x14-y2_14 <=1 
C98: x2+x15 <=1 
C99: x2+x16-y2_16 <=1 
C100: x2+x17-y2_17 <=1 
C101: x2+x18 <=1 
C102: x2+x19-y2_19 <=1 
C103: x2+x20-y2_20 <=1 
C104: x2+x24 <=1 
C105: x2+x26-y2_26 <=1 
C106: x2+x28-y2_28 <=1 
C107: x2+x30 <=1 
C108: x2+x31 <=1 
C109: x2+x32-y2_32 <=1 
C110: x2+x36-y2_36 <=1 
C111: x2+x37-y2_37 <=1 
C112: x2+x39-y2_39 <=1 
C113: x2+x40-y2_40 <=1 
C114: x2+x43 <=1 
C115: x2+x44-y2_44 <=1 
C116: x2+x45 <=1 
C117: x2+x46-y2_46 <=1 
C118: x2+x47 <=1 
C119: x2+x49 <=1 
C120: x2+x50 <=1 
C121: x2+x54-y2_54 <=1 
C122: x2+x55-y2_55 <=1 
C123: x2+x57-y2_57 <=1 
C124: x2+x58-y2_58 <=1 
C125: x2+x59 <=1 
C126: x2+x60 <=1 
C127: x2+x61-y2_61 <=1 
C128: x2+x66 <=1 
C129: x3+x4 <=1 
C130: x3+x8-y3_8 <=1 
C131: x3+x9-y3_9 <=1 
C132: x3+x13 <=1 
C133: x3+x14-y3_14 <=1 
C134: x3+x16 <=1 
C135: x3+x17 <=1 
C136: x3+x18 <=1 
C137: x3+x19-y3_19 <=1 
C138: x3+x20 <=1 
C139: x3+x22-y3_22 <=1 
C140: x3+x23 <=1 
C141: x3+x24 <=1 
C142: x3+x25 <=1 
C143: x3+x26-y3_26 <=1 
C144: x3+x28 <=1 
C145: x3+x29 <=1 
C146: x3+x31-y3_31 <=1 
C147: x3+x35 <=1 
C148: x3+x37 <=1 
C149: x3+x38 <=1 
C150: x3+x40-y3_40 <=1 
C151: x3+x41-y3_41 <=1 
C152: x3+x43-y3_43 <=1 
C153: x3+x44 <=1 
C154: x3+x45-y3_45 <=1 
C155: x3+x46-y3_46 <=1 
C156: x3+x47 <=1 
C157: x3+x48-y3_48 <=1 
C158: x3+x49 <=1 
C159: x3+x53-y3_53 <=1 
C160: x3+x54-y3_54 <=1 
C161: x3+x55 <=1 
C162: x3+x58 <=1 
C163: x3+x59-y3_59 <=1 
C164: x3+x60 <=1 
C165: x3+x61-y3_61 <=1 
C166: x3+x62 <=1 
C167: x3+x63-y3_63 <=1 
C168: x3+x64-y3_64 <=1 
C169: x3+x67-y3_67 <=1 
C170: x4+x7-y4_7 <=1 
C171: x4+x10 <=1 
C172: x4+x11-y4_11 <=1 
C173: x4+x12-y4_12 <=1 
C174: x4+x14-y4_14 <=1 
C175: x4+x17-y4_17 <=1 
C176: x4+x18-y4_18 <=1 
C177: x4+x20 <=1 
C178: x4+x21 <=1 
C179: x4+x24-y4_24 <=1 
C180: x4+x25 <=1 
C181: x4+x26 <=1 
C182: x4+x27-y4_27 <=1 
C183: x4+x28 <=1 
C184: x4+x30-y4_30 <=1 
C185: x4+x32 <=1 
C186: x4+x33 <=1 
C187: x4+x34-y4_34 <=1 
C188: x4+x35-y4_35 <=1 
C189: x4+x36 <=1 
C190: x4+x37 <=1 
C191: x4+x41-y4_41 <=1 
C192: x4+x42 <=1 
C193: x4+x43-y4_43 <=1 
C194: x4+x49 <=1 
C195: x4+x53 <=1 
C196: x4+x54-y4_54 <=1 
C197: x4+x56-y4_56 <=1 
C198: x4+x57 <=1 
C199: x4+x59 <=1 
C200: x4+x60 <=1 
C201: x4+x64-y4_64 <=1 
C202: x4+x66 <=1 
C203: x5+x7 <=1 
C204: x5+x9 <=1 
C205: x5+x10 <=1 
C206: x5+x11-y5_11 <=1 
C207: x5+x13-y5_13 <=1 
C208: x5+x15-y5_15 <=1 
C209: x5+x16-y5_16 <=1 
C210: x5+x17-y5_17 <=1 
C211: x5+x20-y5_20 <=1 
C212: x5+x26 <=1 
C213: x5+x27-y5_27 <=1 
C214: x5+x28 <=1 
C215: x5+x29-y5_29 <=1 
C216: x5+x30-y5_30 <=1 
C217: x5+x31-y5_31 <=1 
C218: x5+x32 <=1 
C219: x5+x33-y5_33 <=1 
C220: x5+x35-y5_35 <=1 
C221: x5+x39 <=1 
C222: x5+x40-y5_40 <=1 
C223: x5+x41 <=1 
C224: x5+x42-y5_42 <=1 
C225: x5+x43 <=1 
C226: x5+x45-y5_45 <=1 
C227: x5+x46 <=1 
C228: x5+x50-y5_50 <=1 
C229: x5+x51 <=1 
C230: x5+x55-y5_55 <=1 
C231: x5+x56-y5_56 <=1 
C232: x5+x57-y5_57 <=1 
C233: x5+x58 <=1 
C234: x5+x59 <=1 
C235: x5+x60 <=1 
C236: x5+x61 <=1 
C237: x5+x62-y5_62 <=1 
C238: x5+x63 <=1 
C239: x5+x64 <=1 
C240: x5+x67 <=1 
C241: x6+x8-y6_8 <=1 
C242: x6+x10 <=1 
C243: x6+x11 <=1 
C244: x6+x12 <=1 
C245: x6+x14 <=1 
C246: x6+x15 <=1 
C247: x6+x16 <=1 
C248: x6+x19-y6_19 <=1 
C249: x6+x20 <=1 
C250: x6+x21-y6_21 <=1 
C251: x6+x24 <=1 
C252: x6+x25 <=1 
C253: x6+x27-y6_27 <=1 
C254: x6+x28 <=1 
C255: x6+x30-y6_30 <=1 
C256: x6+x32-y6_32 <=1 
C257: x6+x33-y6_33 <=1 
C258: x6+x34 <=1 
C259: x6+x35 <=1 
C260: x6+x36-y6_36 <=1 
C261: x6+x37-y6_37 <=1 
C262: x6+x40-y6_40 <=1 
C263: x6+x42-y6_42 <=1 
C264: x6+x44 <=1 
C265: x6+x45-y6_45 <=1 
C266: x6+x47-y6_47 <=1 
C267: x6+x48 <=1 
C268: x6+x50 <=1 
C269: x6+x51-y6_51 <=1 
C270: x6+x52 <=1 
C271: x6+x53 <=1 
C272: x6+x54 <=1 
C273: x6+x55-y6_55 <=1 
C274: x6+x56 <=1 
C275: x6+x57 <=1 
C276: x6+x58 <=1 
C277: x6+x60-y6_60 <=1 
C278: x6+x62 <=1 
C279: x6+x65 <=1 
C280: x6+x67 <=1 
C281: x7+x8 <=1 
C282: x7+x9-y7_9 <=1 
C283: x7+x10 <=1 
C284: x7+x11 <=1 
C285: x7+x14 <=1 
C286: x7+x15 <=1 
C287: x7+x16-y7_16 <=1 
C288: x7+x18 <=1 
C289: x7+x19-y7_19 <=1 
C290: x7+x22-y7_22 <=1 
C291: x7+x23-y7_23 <=1 
C292: x7+x25-y7_25 <=1 
C293: x7+x26 <=1 
C294: x7+x27-y7_27 <=1 
C295: x7+x28-y7_28 <=1 
C296: x7+x29 <=1 
C297: x7+x30 <=1 
C298: x7+x31 <=1 
C299: x7+x32 <=1 
C300: x7+x33-y7_33 <=1 
C301: x7+x35 <=1 
C302: x7+x37 <=1 
C303: x7+x40-y7_40 <=1 
C304: x7+x47 <=1 
C305: x7+x48 <=1 
C306: x7+x50 <=1 
C307: x7+x51 <=1 
C308: x7+x53 <=1 
C309: x7+x55-y7_55 <=1 
C310: x7+x57-y7_57 <=1 
C311: x7+x60 <=1 
C312: x7+x61-y7_61 <=1 
C313: x7+x63-y7_63 <=1 
C314: x7+x65-y7_65 <=1 
C315: x7+x66 <=1 
C316: x8+x9-y8_9 <=1 
C317: x8+x10 <=1 
C318: x8+x11-y8_11 <=1 
C319: x8+x16-y8_16 <=1 
C320: x8+x19-y8_19 <=1 
C321: x8+x20 <=1 
C322: x8+x21-y8_21 <=1 
C323: x8+x23-y8_23 <=1 
C324: x8+x24 <=1 
C325: x8+x25-y8_25 <=1 
C326: x8+x26 <=1 
C327: x8+x27-y8_27 <=1 
C328: x8+x29-y8_29 <=1 
C329: x8+x30-y8_30 <=1 
C330: x8+x31 <=1 
C331: x8+x32-y8_32 <=1 
C332: x8+x34 <=1 
C333: x8+x35 <=1 
C334: x8+x36-y8_36 <=1 
C335: x8+x38 <=1 
C336: x8+x39-y8_39 <=1 
C337: x8+x43 <=1 
C338: x8+x44-y8_44 <=1 
C339: x8+x45 <=1 
C340: x8+x47 <=1 
C341: x8+x48 <=1 
C342: x8+x49-y8_49 <=1 
C343: x8+x50 <=1 
C344: x8+x52 <=1 
C345: x8+x56 <=1 
C346: x8+x59-y8_59 <=1 
C347: x8+x60-y8_60 <=1 
C348: x8+x61 <=1 
C349: x8+x62-y8_62 <=1 
C350: x8+x64-y8_64 <=1 
C351: x8+x65-y8_65 <=1 
C352: x8+x66-y8_66 <=1 
C353: x9+x10-y9_10 <=1 
C354: x9+x13 <=1 
C355: x9+x16 <=1 
C356: x9+x18 <=1 
C357: x9+x21 <=1 
C358: x9+x22 <=1 
C359: x9+x24 <=1 
C360: x9+x25 <=1 
C361: x9+x26-y9_26 <=1 
C362: x9+x27 <=1 
C363: x9+x29-y9_29 <=1 
C364: x9+x31 <=1 
C365: x9+x32 <=1 
C366: x9+x33-y9_33 <=1 
C367: x9+x34 <=1 
C368: x9+x35-y9_35 <=1 
C369: x9+x36 <=1 
C370: x9+x40 <=1 
C371: x9+x41 <=1 
C372: x9+x44 <=1 
C373: x9+x45-y9_45 <=1 
C374: x9+x47-y9_47 <=1 
C375: x9+x49-y9_49 <=1 
C376: x9+x52 <=1 
C377: x9+x53 <=1 
C378: x9+x54 <=1 
C379: x9+x55 <=1 
C380: x9+x56-y9_56 <=1 
C381: x9+x59 <=1 
C382: x9+x60 <=1 
C383: x9+x62 <=1 
C384: x9+x63-y9_63 <=1 
C385: x9+x64 <=1 
C386: x9+x65-y9_65 <=1 
C387: x9+x66-y9_66 <=1 
C388: x10+x11-y10_11 <=1 
C389: x10+x12-y10_12 <=1 
C390: x10+x13-y10_13 <=1 
C391: x10+x14-y10_14 <=1 
C392: x10+x15-y10_15 <=1 
C393: x10+x18 <=1 
C394: x10+x19 <=1 
C395: x10+x21-y10_21 <=1 
C396: x10+x22-y10_22 <=1 
C397: x10+x23-y10_23 <=1 
C398: x10+x25 <=1 
C399: x10+x26-y10_26 <=1 
C400: x10+x29 <=1 
C401: x10+x30-y10_30 <=1 
C402: x10+x32 <=1 
C403: x10+x33 <=1 
C404: x10+x40 <=1 
C405: x10+x41 <=1 
C406: x10+x44-y10_44 <=1 
C407: x10+x46-y10_46 <=1 
C408: x10+x47 <=1 
C409: x10+x48-y10_48 <=1 
C410: x10+x50 <=1 
C411: x10+x52-y10_52 <=1 
C412: x10+x53 <=1 
C413: x10+x55-y10_55 <=1 
C414: x10+x56-y10_56 <=1 
C415: x10+x58 <=1 
C416: x10+x59 <=1 
C417: x10+x62 <=1 
C418: x10+x63 <=1 
C419: x10+x64-y10_64 <=1 
C420: x10+x65 <=1 
C421: x10+x66-y10_66 <=1 
C422: x11+x12 <=1 
C423: x11+x13-y11_13 <=1 
C424: x11+x14-y11_14 <=1 
C425: x11+x15 <=1 
C426: x11+x16-y11_16 <=1 
C427: x11+x18-y11_18 <=1 
C428: x11+x19-y11_19 <=1 
C429: x11+x20 <=1 
C430: x11+x21 <=1 
C431: x11+x23 <=1 
C432: x11+x24 <=1 
C433: x11+x25-y11_25 <=1 
C434: x11+x26-y11_26 <=1 
C435: x11+x29 <=1 
C436: x11+x30 <=1 
C437: x11+x31 <=1 
C438: x11+x33-y11_33 <=1 
C439: x11+x35 <=1 
C440: x11+x37-y11_37 <=1 
C441: x11+x38 <=1 
C442: x11+x41 <=1 
C443: x11+x42 <=1 
C444: x11+x44 <=1 
C445: x11+x45-y11_45 <=1 
C446: x11+x48 <=1 
C447: x11+x49 <=1 
C448: x11+x50-y11_50 <=1 
C449: x11+x51 <=1 
C450: x11+x52-y11_52 <=1 
C451: x11+x53-y11_53 <=1 
C452: x11+x54 <=1 
C453: x11+x55-y11_55 <=1 
C454: x11+x56 <=1 
C455: x11+x57 <=1 
C456: x11+x59-y11_59 <=1 
C457: x11+x60-y11_60 <=1 
C458: x11+x63 <=1 
C459: x11+x64 <=1 
C460: x11+x65 <=1 
C461: x11+x66-y11_66 <=1 
C462: x11+x67-y11_67 <=1 
C463: x12+x15-y12_15 <=1 
C464: x12+x17 <=1 
C465: x12+x19-y12_19 <=1 
C466: x12+x20-y12_20 <=1 
C467: x12+x21 <=1 
C468: x12+x22 <=1 
C469: x12+x23-y12_23 <=1 
C470: x12+x24 <=1 
C471: x12+x26 <=1 
C472: x12+x27 <=1 
C473: x12+x29 <=1 
C474: x12+x30-y12_30 <=1 
C475: x12+x33 <=1 
C476: x12+x34-y12_34 <=1 
C477: x12+x35-y12_35 <=1 
C478: x12+x36-y12_36 <=1 
C479: x12+x41-y12_41 <=1 
C480: x12+x42-y12_42 <=1 
C481: x12+x44 <=1 
C482: x12+x45 <=1 
C483: x12+x46-y12_46 <=1 
C484: x12+x47 <=1 
C485: x12+x48 <=1 
C486: x12+x52 <=1 
C487: x12+x53-y12_53 <=1 
C488: x12+x55-y12_55 <=1 
C489: x12+x56 <=1 
C490: x12+x57-y12_57 <=1 
C491: x12+x58 <=1 
C492: x12+x60-y12_60 <=1 
C493: x12+x61-y12_61 <=1 
C494: x12+x62-y12_62 <=1 
C495: x13+x14 <=1 
C496: x13+x15-y13_15 <=1 
C497: x13+x16 <=1 
C498: x13+x18 <=1 
C499: x13+x20-y13_20 <=1 
C500: x13+x22 <=1 
C501: x13+x23 <=1 
C502: x13+x25-y13_25 <=1 
C503: x13+x26-y13_26 <=1 
C504: x13+x27-y13_27 <=1 
C505: x13+x30 <=1 
C506: x13+x36 <=1 
C507: x13+x37 <=1 
C508: x13+x38-y13_38 <=1 
C509: x13+x41 <=1 
C510: x13+x42-y13_42 <=1 
C511: x13+x44-y13_44 <=1 
C512: x13+x45-y13_45 <=1 
C513: x13+x46 <=1 
C514: x13+x48-y13_48 <=1 
C515: x13+x49 <=1 
C516: x13+x51-y13_51 <=1 
C517: x13+x52-y13_52 <=1 
C518: x13+x57 <=1 
C519: x13+x58-y13_58 <=1 
C520: x13+x59 <=1 
C521: x13+x60 <=1 
C522: x13+x61 <=1 
C523: x13+x62-y13_62 <=1 
C524: x13+x66-y13_66 <=1 
C525: x13+x67 <=1 
C526: x14+x15-y14_15 <=1 
C527: x14+x18-y14_18 <=1 
C528: x14+x21 <=1 
C529: x14+x23-y14_23 <=1 
C530: x14+x27-y14_27 <=1 
C531: x14+x28-y14_28 <=1 
C532: x14+x29-y14_29 <=1 
C533: x14+x30 <=1 
C534: x14+x31 <=1 
C535: x14+x32 <=1 
C536: x14+x33 <=1 
C537: x14+x34 <=1 
C538: x14+x38-y14_38 <=1 
C539: x14+x39 <=1 
C540: x14+x41-y14_41 <=1 
C541: x14+x43-y14_43 <=1 
C542: x14+x44-y14_44 <=1 
C543: x14+x45-y14_45 <=1 
C544: x14+x46 <=1 
C545: x14+x47 <=1 
C546: x14+x48-y14_48 <=1 
C547: x14+x49-y14_49 <=1 
C548: x14+x50-y14_50 <=1 
C549: x14+x53 <=1 
C550: x14+x54 <=1 
C551: x14+x55 <=1 
C552: x14+x59-y14_59 <=1 
C553: x14+x60-y14_60 <=1 
C554: x14+x61-y14_61 <=1 
C555: x14+x62 <=1 
C556: x14+x65-y14_65 <=1 
C557: x14+x66 <=1 
C558: x14+x67 <=1 
C559: x15+x16-y15_16 <=1 
C560: x15+x18-y15_18 <=1 
C561: x15+x19-y15_19 <=1 
C562: x15+x20 <=1 
C563: x15+x21 <=1 
C564: x15+x22-y15_22 <=1 
C565: x15+x23-y15_23 <=1 
C566: x15+x25-y15_25 <=1 
C567: x15+x28-y15_28 <=1 
C568: x15+x29-y15_29 <=1 
C569: x15+x30 <=1 
C570: x15+x31 <=1 
C571: x15+x34 <=1 
C572: x15+x38 <=1 
C573: x15+x39 <=1 
C574: x15+x40 <=1 
C575: x15+x41 <=1 
C576: x15+x43-y15_43 <=1 
C577: x15+x44-y15_44 <=1 
C578: x15+x45-y15_45 <=1 
C579: x15+x46 <=1 
C580: x15+x47 <=1 
C581: x15+x48-y15_48 <=1 
C582: x15+x49 <=1 
C583: x15+x50 <=1 
C584: x15+x51 <=1 
C585: x15+x52 <=1 
C586: x15+x53-y15_53 <=1 
C587: x15+x54-y15_54 <=1 
C588: x15+x56-y15_56 <=1 
C589: x15+x60 <=1 
C590: x15+x63 <=1 
C591: x15+x64-y15_64 <=1 
C592: x15+x66 <=1 
C593: x15+x67 <=1 
C594: x16+x17 <=1 
C595: x16+x18-y16_18 <=1 
C596: x16+x20-y16_20 <=1 
C597: x16+x24-y16_24 <=1 
C598: x16+x25-y16_25 <=1 
C599: x16+x26-y16_26 <=1 
C600: x16+x29 <=1 
C601: x16+x31-y16_31 <=1 
C602: x16+x34 <=1 
C603: x16+x35-y16_35 <=1 
C604: x16+x36-y16_36 <=1 
C605: x16+x39-y16_39 <=1 
C606: x16+x40 <=1 
C607: x16+x41 <=1 
C608: x16+x44-y16_44 <=1 
C609: x16+x46 <=1 
C610: x16+x47-y16_47 <=1 
C611: x16+x48-y16_48 <=1 
C612: x16+x49 <=1 
C613: x16+x51 <=1 
C614: x16+x52-y16_52 <=1 
C615: x16+x53-y16_53 <=1 
C616: x16+x54 <=1 
C617: x16+x56-y16_56 <=1 
C618: x16+x59 <=1 
C619: x16+x60-y16_60 <=1 
C620: x16+x62 <=1 
C621: x16+x63-y16_63 <=1 
C622: x16+x64 <=1 
C623: x16+x67-y16_67 <=1 
C624: x17+x19 <=1 
C625: x17+x24 <=1 
C626: x17+x26-y17_26 <=1 
C627: x17+x27-y17_27 <=1 
C628: x17+x28 <=1 
C629: x17+x30-y17_30 <=1 
C630: x17+x31-y17_31 <=1 
C631: x17+x33 <=1 
C632: x17+x34 <=1 
C633: x17+x40-y17_40 <=1 
C634: x17+x43-y17_43 <=1 
C635: x17+x44 <=1 
C636: x17+x50-y17_50 <=1 
C637: x17+x54 <=1 
C638: x17+x55-y17_55 <=1 
C639: x17+x57 <=1 
C640: x17+x60 <=1 
C641: x17+x65-y17_65 <=1 
C642: x17+x66-y17_66 <=1 
C643: x17+x67-y17_67 <=1 
C644: x18+x20-y18_20 <=1 
C645: x18+x21 <=1 
C646: x18+x23 <=1 
C647: x18+x25-y18_25 <=1 
C648: x18+x27 <=1 
C649: x18+x30 <=1 
C650: x18+x32 <=1 
C651: x18+x33 <=1 
C652: x18+x34-y18_34 <=1 
C653: x18+x35 <=1 
C654: x18+x39-y18_39 <=1 
C655: x18+x41 <=1 
C656: x18+x42 <=1 
C657: x18+x44-y18_44 <=1 
C658: x18+x47-y18_47 <=1 
C659: x18+x48-y18_48 <=1 
C660: x18+x49-y18_49 <=1 
C661: x18+x50 <=1 
C662: x18+x51 <=1 
C663: x18+x52-y18_52 <=1 
C664: x18+x53-y18_53 <=1 
C665: x18+x55-y18_55 <=1 
C666: x18+x56-y18_56 <=1 
C667: x18+x57-y18_57 <=1 
C668: x18+x59 <=1 
C669: x18+x60 <=1 
C670: x18+x61 <=1 
C671: x18+x62-y18_62 <=1 
C672: x18+x63-y18_63 <=1 
C673: x18+x65 <=1 
C674: x18+x66 <=1 
C675: x18+x67 <=1 
C676: x19+x20 <=1 
C677: x19+x21-y19_21 <=1 
C678: x19+x23-y19_23 <=1 
C679: x19+x25 <=1 
C680: x19+x26 <=1 
C681: x19+x27 <=1 
C682: x19+x29-y19_29 <=1 
C683: x19+x31-y19_31 <=1 
C684: x19+x32-y19_32 <=1 
C685: x19+x33-y19_33 <=1 
C686: x19+x34-y19_34 <=1 
C687: x19+x35 <=1 
C688: x19+x39 <=1 
C689: x19+x40 <=1 
C690: x19+x41-y19_41 <=1 
C691: x19+x42-y19_42 <=1 
C692: x19+x43-y19_43 <=1 
C693: x19+x44-y19_44 <=1 
C694: x19+x45-y19_45 <=1 
C695: x19+x46 <=1 
C696: x19+x48-y19_48 <=1 
C697: x19+x49-y19_49 <=1 
C698: x19+x50-y19_50 <=1 
C699: x19+x52-y19_52 <=1 
C700: x19+x54-y19_54 <=1 
C701: x19+x55 <=1 
C702: x19+x56-y19_56 <=1 
C703: x19+x57 <=1 
C704: x19+x58 <=1 
C705: x19+x60-y19_60 <=1 
C706: x19+x61-y19_61 <=1 
C707: x19+x62 <=1 
C708: x19+x64 <=1 
C709: x19+x65-y19_65 <=1 
C710: x19+x66-y19_66 <=1 
C711: x19+x67 <=1 
C712: x20+x22-y20_22 <=1 
C713: x20+x23 <=1 
C714: x20+x24 <=1 
C715: x20+x25-y20_25 <=1 
C716: x20+x26-y20_26 <=1 
C717: x20+x29 <=1 
C718: x20+x31-y20_31 <=1 
C719: x20+x32-y20_32 <=1 
C720: x20+x33 <=1 
C721: x20+x35 <=1 
C722: x20+x37 <=1 
C723: x20+x38-y20_38 <=1 
C724: x20+x39-y20_39 <=1 
C725: x20+x40 <=1 
C726: x20+x41-y20_41 <=1 
C727: x20+x42-y20_42 <=1 
C728: x20+x44-y20_44 <=1 
C729: x20+x45 <=1 
C730: x20+x47 <=1 
C731: x20+x48 <=1 
C732: x20+x50 <=1 
C733: x20+x51-y20_51 <=1 
C734: x20+x52-y20_52 <=1 
C735: x20+x53-y20_53 <=1 
C736: x20+x54 <=1 
C737: x20+x55-y20_55 <=1 
C738: x20+x56 <=1 
C739: x20+x58 <=1 
C740: x20+x60-y20_60 <=1 
C741: x20+x61 <=1 
C742: x20+x62-y20_62 <=1 
C743: x20+x64 <=1 
C744: x20+x65-y20_65 <=1 
C745: x20+x67 <=1 
C746: x21+x22-y21_22 <=1 
C747: x21+x23-y21_23 <=1 
C748: x21+x25-y21_25 <=1 
C749: x21+x26 <=1 
C750: x21+x27 <=1 
C751: x21+x28-y21_28 <=1 
C752: x21+x29-y21_29 <=1 
C753: x21+x34 <=1 
C754: x21+x36 <=1 
C755: x21+x37 <=1 
C756: x21+x38-y21_38 <=1 
C757: x21+x39 <=1 
C758: x21+x40 <=1 
C759: x21+x42-y21_42 <=1 
C760: x21+x43-y21_43 <=1 
C761: x21+x44 <=1 
C762: x21+x46-y21_46 <=1 
C763: x21+x47-y21_47 <=1 
C764: x21+x50-y21_50 <=1 
C765: x21+x51-y21_51 <=1 
C766: x21+x53 <=1 
C767: x21+x55-y21_55 <=1 
C768: x21+x57-y21_57 <=1 
C769: x21+x58-y21_58 <=1 
C770: x21+x59 <=1 
C771: x21+x60-y21_60 <=1 
C772: x21+x61-y21_61 <=1 
C773: x21+x62 <=1 
C774: x21+x63-y21_63 <=1 
C775: x21+x64 <=1 
C776: x22+x26-y22_26 <=1 
C777: x22+x27-y22_27 <=1 
C778: x22+x28 <=1 
C779: x22+x29 <=1 
C780: x22+x30 <=1 
C781: x22+x31-y22_31 <=1 
C782: x22+x32-y22_32 <=1 
C783: x22+x34-y22_34 <=1 
C784: x22+x41 <=1 
C785: x22+x42 <=1 
C786: x22+x48-y22_48 <=1 
C787: x22+x49 <=1 
C788: x22+x53-y22_53 <=1 
C789: x22+x55 <=1 
C790: x22+x58 <=1 
C791: x22+x61 <=1 
C792: x22+x64-y22_64 <=1 
C793: x22+x65-y22_65 <=1 
C794: x22+x66 <=1 
C795: x23+x24-y23_24 <=1 
C796: x23+x25 <=1 
C797: x23+x26 <=1 
C798: x23+x27 <=1 
C799: x23+x29-y23_29 <=1 
C800: x23+x30 <=1 
C801: x23+x31 <=1 
C802: x23+x32-y23_32 <=1 
C803: x23+x33 <=1 
C804: x23+x35-y23_35 <=1 
C805: x23+x36-y23_36 <=1 
C806: x23+x37-y23_37 <=1 
C807: x23+x39 <=1 
C808: x23+x41-y23_41 <=1 
C809: x23+x43 <=1 
C810: x23+x50 <=1 
C811: x23+x51-y23_51 <=1 
C812: x23+x52 <=1 
C813: x23+x53 <=1 
C814: x23+x56-y23_56 <=1 
C815: x23+x58 <=1 
C816: x23+x60-y23_60 <=1 
C817: x23+x61 <=1 
C818: x23+x64-y23_64 <=1 
C819: x23+x66 <=1 
C820: x23+x67 <=1 
C821: x24+x25 <=1 
C822: x24+x30-y24_30 <=1 
C823: x24+x31-y24_31 <=1 
C824: x24+x32 <=1 
C825: x24+x33 <=1 
C826: x24+x34 <=1 
C827: x24+x35-y24_35 <=1 
C828: x24+x36-y24_36 <=1 
C829: x24+x37 <=1 
C830: x24+x39-y24_39 <=1 
C831: x24+x41-y24_41 <=1 
C832: x24+x44-y24_44 <=1 
C833: x24+x45-y24_45 <=1 
C834: x24+x53-y24_53 <=1 
C835: x24+x54-y24_54 <=1 
C836: x24+x55 <=1 
C837: x24+x56 <=1 
C838: x24+x57 <=1 
C839: x24+x58 <=1 
C840: x24+x59-y24_59 <=1 
C841: x24+x60 <=1 
C842: x24+x61 <=1 
C843: x24+x63 <=1 
C844: x24+x64 <=1 
C845: x24+x66 <=1 
C846: x25+x27-y25_27 <=1 
C847: x25+x28-y25_28 <=1 
C848: x25+x29-y25_29 <=1 
C849: x25+x30-y25_30 <=1 
C850: x25+x31 <=1 
C851: x25+x32 <=1 
C852: x25+x34-y25_34 <=1 
C853: x25+x35 <=1 
C854: x25+x37-y25_37 <=1 
C855: x25+x38-y25_38 <=1 
C856: x25+x39 <=1 
C857: x25+x43-y25_43 <=1 
C858: x25+x44 <=1 
C859: x25+x45-y25_45 <=1 
C860: x25+x48 <=1 
C861: x25+x49 <=1 
C862: x25+x50-y25_50 <=1 
C863: x25+x51 <=1 
C864: x25+x52 <=1 
C865: x25+x53-y25_53 <=1 
C866: x25+x54-y25_54 <=1 
C867: x25+x55 <=1 
C868: x25+x59 <=1 
C869: x25+x60-y25_60 <=1 
C870: x25+x62 <=1 
C871: x25+x64 <=1 
C872: x25+x65-y25_65 <=1 
C873: x25+x66 <=1 
C874: x25+x67-y25_67 <=1 
C875: x26+x29 <=1 
C876: x26+x30-y26_30 <=1 
C877: x26+x31-y26_31 <=1 
C878: x26+x32 <=1 
C879: x26+x36-y26_36 <=1 
C880: x26+x37-y26_37 <=1 
C881: x26+x38 <=1 
C882: x26+x39 <=1 
C883: x26+x42 <=1 
C884: x26+x43 <=1 
C885: x26+x47 <=1 
C886: x26+x49-y26_49 <=1 
C887: x26+x52-y26_52 <=1 
C888: x26+x56-y26_56 <=1 
C889: x26+x58-y26_58 <=1 
C890: x26+x59 <=1 
C891: x26+x60-y26_60 <=1 
C892: x26+x62-y26_62 <=1 
C893: x26+x63-y26_63 <=1 
C894: x26+x64 <=1 
C895: x26+x65 <=1 
C896: x26+x67 <=1 
C897: x27+x28 <=1 
C898: x27+x29 <=1 
C899: x27+x30-y27_30 <=1 
C900: x27+x31-y27_31 <=1 
C901: x27+x32-y27_32 <=1 
C902: x27+x33 <=1 
C903: x27+x35-y27_35 <=1 
C904: x27+x36 <=1 
C905: x27+x37 <=1 
C906: x27+x40 <=1 
C907: x27+x43 <=1 
C908: x27+x44 <=1 
C909: x27+x45-y27_45 <=1 
C910: x27+x46 <=1 
C911: x27+x47 <=1 
C912: x27+x49 <=1 
C913: x27+x51-y27_51 <=1 
C914: x27+x54 <=1 
C915: x27+x55-y27_55 <=1 
C916: x27+x56 <=1 
C917: x27+x57 <=1 
C918: x27+x58 <=1 
C919: x27+x60-y27_60 <=1 
C920: x27+x61-y27_61 <=1 
C921: x27+x62 <=1 
C922: x27+x64 <=1 
C923: x27+x67-y27_67 <=1 
C924: x28+x30-y28_30 <=1 
C925: x28+x32-y28_32 <=1 
C926: x28+x33-y28_33 <=1 
C927: x28+x34 <=1 
C928: x28+x39-y28_39 <=1 
C929: x28+x40 <=1 
C930: x28+x45 <=1 
C931: x28+x47-y28_47 <=1 
C932: x28+x48 <=1 
C933: x28+x50-y28_50 <=1 
C934: x28+x53 <=1 
C935: x28+x54-y28_54 <=1 
C936: x28+x55-y28_55 <=1 
C937: x28+x56-y28_56 <=1 
C938: x28+x57-y28_57 <=1 
C939: x28+x58-y28_58 <=1 
C940: x28+x59 <=1 
C941: x28+x60-y28_60 <=1 
C942: x28+x62-y28_62 <=1 
C943: x28+x63-y28_63 <=1 
C944: x28+x65-y28_65 <=1 
C945: x28+x67-y28_67 <=1 
C946: x29+x32-y29_32 <=1 
C947: x29+x34-y29_34 <=1 
C948: x29+x35-y29_35 <=1 
C949: x29+x36 <=1 
C950: x29+x38 <=1 
C951: x29+x39-y29_39 <=1 
C952: x29+x40 <=1 
C953: x29+x41 <=1 
C954: x29+x42-y29_42 <=1 
C955: x29+x45-y29_45 <=1 
C956: x29+x46-y29_46 <=1 
C957: x29+x48-y29_48 <=1 
C958: x29+x50-y29_50 <=1 
C959: x29+x51-y29_51 <=1 
C960: x29+x54 <=1 
C961: x29+x55 <=1 
C962: x29+x57 <=1 
C963: x29+x59 <=1 
C964: x29+x60-y29_60 <=1 
C965: x29+x61-y29_61 <=1 
C966: x29+x64-y29_64 <=1 
C967: x29+x65 <=1 
C968: x29+x66 <=1 
C969: x29+x67 <=1 
C970: x30+x33 <=1 
C971: x30+x34-y30_34 <=1 
C972: x30+x35-y30_35 <=1 
C973: x30+x36-y30_36 <=1 
C974: x30+x37-y30_37 <=1 
C975: x30+x38 <=1 
C976: x30+x39 <=1 
C977: x30+x40 <=1 
C978: x30+x41-y30_41 <=1 
C979: x30+x42-y30_42 <=1 
C980: x30+x43-y30_43 <=1 
C981: x30+x46-y30_46 <=1 
C982: x30+x47-y30_47 <=1 
C983: x30+x48 <=1 
C984: x30+x49-y30_49 <=1 
C985: x30+x51-y30_51 <=1 
C986: x30+x53-y30_53 <=1 
C987: x30+x54 <=1 
C988: x30+x56-y30_56 <=1 
C989: x30+x57-y30_57 <=1 
C990: x30+x61-y30_61 <=1 
C991: x30+x62 <=1 
C992: x30+x63 <=1 
C993: x30+x64-y30_64 <=1 
C994: x30+x65-y30_65 <=1 
C995: x30+x66 <=1 
C996: x31+x33-y31_33 <=1 
C997: x31+x34-y31_34 <=1 
C998: x31+x36 <=1 
C999: x31+x37-y31_37 <=1 
C1000: x31+x39-y31_39 <=1 
C1001: x31+x41-y31_41 <=1 
C1002: x31+x42-y31_42 <=1 
C1003: x31+x45-y31_45 <=1 
C1004: x31+x48 <=1 
C1005: x31+x49-y31_49 <=1 
C1006: x31+x50-y31_50 <=1 
C1007: x31+x52-y31_52 <=1 
C1008: x31+x53 <=1 
C1009: x31+x54 <=1 
C1010: x31+x55 <=1 
C1011: x31+x57 <=1 
C1012: x31+x61 <=1 
C1013: x31+x63 <=1 
C1014: x31+x64 <=1 
C1015: x31+x67 <=1 
C1016: x32+x33-y32_33 <=1 
C1017: x32+x34-y32_34 <=1 
C1018: x32+x36 <=1 
C1019: x32+x43-y32_43 <=1 
C1020: x32+x47 <=1 
C1021: x32+x48-y32_48 <=1 
C1022: x32+x49-y32_49 <=1 
C1023: x32+x50 <=1 
C1024: x32+x51 <=1 
C1025: x32+x52-y32_52 <=1 
C1026: x32+x53-y32_53 <=1 
C1027: x32+x55-y32_55 <=1 
C1028: x32+x58 <=1 
C1029: x32+x59 <=1 
C1030: x32+x62 <=1 
C1031: x32+x64-y32_64 <=1 
C1032: x32+x65 <=1 
C1033: x32+x66-y32_66 <=1 
C1034: x32+x67 <=1 
C1035: x33+x34-y33_34 <=1 
C1036: x33+x36 <=1 
C1037: x33+x39-y33_39 <=1 
C1038: x33+x40 <=1 
C1039: x33+x42-y33_42 <=1 
C1040: x33+x43-y33_43 <=1 
C1041: x33+x47 <=1 
C1042: x33+x48 <=1 
C1043: x33+x49-y33_49 <=1 
C1044: x33+x50 <=1 
C1045: x33+x51-y33_51 <=1 
C1046: x33+x55 <=1 
C1047: x33+x57-y33_57 <=1 
C1048: x33+x61 <=1 
C1049: x33+x62 <=1 
C1050: x33+x63-y33_63 <=1 
C1051: x33+x64 <=1 
C1052: x33+x65-y33_65 <=1 
C1053: x33+x66-y33_66 <=1 
C1054: x34+x35-y34_35 <=1 
C1055: x34+x38-y34_38 <=1 
C1056: x34+x39 <=1 
C1057: x34+x40-y34_40 <=1 
C1058: x34+x43 <=1 
C1059: x34+x45-y34_45 <=1 
C1060: x34+x48 <=1 
C1061: x34+x49 <=1 
C1062: x34+x50-y34_50 <=1 
C1063: x34+x51 <=1 
C1064: x34+x52 <=1 
C1065: x34+x55-y34_55 <=1 
C1066: x34+x56-y34_56 <=1 
C1067: x34+x57 <=1 
C1068: x34+x58 <=1 
C1069: x34+x59 <=1 
C1070: x34+x61 <=1 
C1071: x34+x62-y34_62 <=1 
C1072: x34+x63 <=1 
C1073: x34+x64 <=1 
C1074: x34+x65-y34_65 <=1 
C1075: x34+x67-y34_67 <=1 
C1076: x35+x36 <=1 
C1077: x35+x37-y35_37 <=1 
C1078: x35+x38-y35_38 <=1 
C1079: x35+x39-y35_39 <=1 
C1080: x35+x40-y35_40 <=1 
C1081: x35+x41 <=1 
C1082: x35+x43 <=1 
C1083: x35+x45-y35_45 <=1 
C1084: x35+x46-y35_46 <=1 
C1085: x35+x47 <=1 
C1086: x35+x48-y35_48 <=1 
C1087: x35+x50-y35_50 <=1 
C1088: x35+x51 <=1 
C1089: x35+x52 <=1 
C1090: x35+x53 <=1 
C1091: x35+x56 <=1 
C1092: x35+x57 <=1 
C1093: x35+x58-y35_58 <=1 
C1094: x35+x60 <=1 
C1095: x35+x61-y35_61 <=1 
C1096: x35+x62-y35_62 <=1 
C1097: x35+x63 <=1 
C1098: x35+x64 <=1 
C1099: x35+x65 <=1 
C1100: x35+x67 <=1 
C1101: x36+x37-y36_37 <=1 
C1102: x36+x38 <=1 
C1103: x36+x40 <=1 
C1104: x36+x41-y36_41 <=1 
C1105: x36+x42 <=1 
C1106: x36+x43-y36_43 <=1 
C1107: x36+x44-y36_44 <=1 
C1108: x36+x45-y36_45 <=1 
C1109: x36+x46 <=1 
C1110: x36+x47 <=1 
C1111: x36+x49-y36_49 <=1 
C1112: x36+x50-y36_50 <=1 
C1113: x36+x51-y36_51 <=1 
C1114: x36+x52 <=1 
C1115: x36+x53-y36_53 <=1 
C1116: x36+x54-y36_54 <=1 
C1117: x36+x55-y36_55 <=1 
C1118: x36+x57 <=1 
C1119: x36+x58 <=1 
C1120: x36+x60 <=1 
C1121: x36+x61-y36_61 <=1 
C1122: x36+x63 <=1 
C1123: x36+x64-y36_64 <=1 
C1124: x36+x65-y36_65 <=1 
C1125: x36+x67 <=1 
C1126: x37+x41 <=1 
C1127: x37+x43-y37_43 <=1 
C1128: x37+x44-y37_44 <=1 
C1129: x37+x46 <=1 
C1130: x37+x47 <=1 
C1131: x37+x48 <=1 
C1132: x37+x50-y37_50 <=1 
C1133: x37+x51 <=1 
C1134: x37+x53 <=1 
C1135: x37+x54-y37_54 <=1 
C1136: x37+x56-y37_56 <=1 
C1137: x37+x58 <=1 
C1138: x37+x59 <=1 
C1139: x37+x61-y37_61 <=1 
C1140: x37+x62-y37_62 <=1 
C1141: x37+x63-y37_63 <=1 
C1142: x37+x64 <=1 
C1143: x37+x65 <=1 
C1144: x37+x66-y37_66 <=1 
C1145: x37+x67-y37_67 <=1 
C1146: x38+x39 <=1 
C1147: x38+x41 <=1 
C1148: x38+x43 <=1 
C1149: x38+x45-y38_45 <=1 
C1150: x38+x46-y38_46 <=1 
C1151: x38+x47-y38_47 <=1 
C1152: x38+x48-y38_48 <=1 
C1153: x38+x51-y38_51 <=1 
C1154: x38+x52 <=1 
C1155: x38+x53 <=1 
C1156: x38+x56-y38_56 <=1 
C1157: x38+x57-y38_57 <=1 
C1158: x38+x59-y38_59 <=1 
C1159: x38+x61-y38_61 <=1 
C1160: x38+x62 <=1 
C1161: x38+x64 <=1 
C1162: x38+x66-y38_66 <=1 
C1163: x39+x40-y39_40 <=1 
C1164: x39+x41-y39_41 <=1 
C1165: x39+x42 <=1 
C1166: x39+x43-y39_43 <=1 
C1167: x39+x44-y39_44 <=1 
C1168: x39+x46-y39_46 <=1 
C1169: x39+x47-y39_47 <=1 
C1170: x39+x49 <=1 
C1171: x39+x50 <=1 
C1172: x39+x52-y39_52 <=1 
C1173: x39+x54 <=1 
C1174: x39+x56 <=1 
C1175: x39+x58-y39_58 <=1 
C1176: x39+x59-y39_59 <=1 
C1177: x39+x60-y39_60 <=1 
C1178: x39+x62 <=1 
C1179: x39+x63 <=1 
C1180: x39+x64-y39_64 <=1 
C1181: x39+x65-y39_65 <=1 
C1182: x39+x66 <=1 
C1183: x39+x67 <=1 
C1184: x40+x41-y40_41 <=1 
C1185: x40+x47-y40_47 <=1 
C1186: x40+x49-y40_49 <=1 
C1187: x40+x51-y40_51 <=1 
C1188: x40+x52-y40_52 <=1 
C1189: x40+x53-y40_53 <=1 
C1190: x40+x54-y40_54 <=1 
C1191: x40+x56 <=1 
C1192: x40+x60 <=1 
C1193: x40+x61 <=1 
C1194: x40+x62 <=1 
C1195: x40+x63-y40_63 <=1 
C1196: x40+x65-y40_65 <=1 
C1197: x41+x44 <=1 
C1198: x41+x46-y41_46 <=1 
C1199: x41+x47-y41_47 <=1 
C1200: x41+x50 <=1 
C1201: x41+x51-y41_51 <=1 
C1202: x41+x54 <=1 
C1203: x41+x55-y41_55 <=1 
C1204: x41+x56-y41_56 <=1 
C1205: x41+x58 <=1 
C1206: x41+x59-y41_59 <=1 
C1207: x41+x60-y41_60 <=1 
C1208: x41+x61 <=1 
C1209: x41+x63 <=1 
C1210: x41+x65 <=1 
C1211: x41+x66-y41_66 <=1 
C1212: x42+x43 <=1 
C1213: x42+x44-y42_44 <=1 
C1214: x42+x45-y42_45 <=1 
C1215: x42+x46 <=1 
C1216: x42+x47 <=1 
C1217: x42+x51-y42_51 <=1 
C1218: x42+x52 <=1 
C1219: x42+x53 <=1 
C1220: x42+x54 <=1 
C1221: x42+x55-y42_55 <=1 
C1222: x42+x56 <=1 
C1223: x42+x57-y42_57 <=1 
C1224: x42+x58-y42_58 <=1 
C1225: x42+x60 <=1 
C1226: x42+x61-y42_61 <=1 
C1227: x42+x62 <=1 
C1228: x42+x64 <=1 
C1229: x42+x65 <=1 
C1230: x42+x66-y42_66 <=1 
C1231: x43+x44 <=1 
C1232: x43+x45 <=1 
C1233: x43+x46-y43_46 <=1 
C1234: x43+x47 <=1 
C1235: x43+x48-y43_48 <=1 
C1236: x43+x50 <=1 
C1237: x43+x51-y43_51 <=1 
C1238: x43+x53-y43_53 <=1 
C1239: x43+x54 <=1 
C1240: x43+x56-y43_56 <=1 
C1241: x43+x57-y43_57 <=1 
C1242: x43+x61 <=1 
C1243: x43+x63 <=1 
C1244: x43+x64-y43_64 <=1 
C1245: x43+x66-y43_66 <=1 
C1246: x44+x46-y44_46 <=1 
C1247: x44+x47-y44_47 <=1 
C1248: x44+x51 <=1 
C1249: x44+x57 <=1 
C1250: x44+x58-y44_58 <=1 
C1251: x44+x59 <=1 
C1252: x44+x60-y44_60 <=1 
C1253: x44+x61 <=1 
C1254: x44+x62 <=1 
C1255: x44+x64-y44_64 <=1 
C1256: x44+x65 <=1 
C1257: x44+x66 <=1 
C1258: x44+x67-y44_67 <=1 
C1259: x45+x46-y45_46 <=1 
C1260: x45+x49 <=1 
C1261: x45+x51 <=1 
C1262: x45+x52-y45_52 <=1 
C1263: x45+x53-y45_53 <=1 
C1264: x45+x55-y45_55 <=1 
C1265: x45+x59 <=1 
C1266: x45+x60-y45_60 <=1 
C1267: x45+x62-y45_62 <=1 
C1268: x45+x63 <=1 
C1269: x45+x64 <=1 
C1270: x45+x65-y45_65 <=1 
C1271: x45+x66-y45_66 <=1 
C1272: x46+x47 <=1 
C1273: x46+x48 <=1 
C1274: x46+x51-y46_51 <=1 
C1275: x46+x52 <=1 
C1276: x46+x55 <=1 
C1277: x46+x57 <=1 
C1278: x46+x59 <=1 
C1279: x46+x63-y46_63 <=1 
C1280: x46+x65-y46_65 <=1 
C1281: x46+x67 <=1 
C1282: x47+x48 <=1 
C1283: x47+x49 <=1 
C1284: x47+x51 <=1 
C1285: x47+x54-y47_54 <=1 
C1286: x47+x56-y47_56 <=1 
C1287: x47+x58-y47_58 <=1 
C1288: x47+x60 <=1 
C1289: x47+x61 <=1 
C1290: x47+x63 <=1 
C1291: x47+x64-y47_64 <=1 
C1292: x47+x65-y47_65 <=1 
C1293: x47+x67-y47_67 <=1 
C1294: x48+x49-y48_49 <=1 
C1295: x48+x52-y48_52 <=1 
C1296: x48+x54-y48_54 <=1 
C1297: x48+x55 <=1 
C1298: x48+x56-y48_56 <=1 
C1299: x48+x57 <=1 
C1300: x48+x61-y48_61 <=1 
C1301: x48+x65 <=1 
C1302: x48+x66 <=1 
C1303: x49+x50-y49_50 <=1 
C1304: x49+x51 <=1 
C1305: x49+x52 <=1 
C1306: x49+x54 <=1 
C1307: x49+x57 <=1 
C1308: x49+x59 <=1 
C1309: x49+x61-y49_61 <=1 
C1310: x49+x63-y49_63 <=1 
C1311: x49+x65 <=1 
C1312: x50+x54 <=1 
C1313: x50+x56 <=1 
C1314: x50+x57-y50_57 <=1 
C1315: x50+x59 <=1 
C1316: x50+x60 <=1 
C1317: x50+x63 <=1 
C1318: x50+x66-y50_66 <=1 
C1319: x50+x67 <=1 
C1320: x51+x52-y51_52 <=1 
C1321: x51+x53-y51_53 <=1 
C1322: x51+x55-y51_55 <=1 
C1323: x51+x58-y51_58 <=1 
C1324: x51+x59-y51_59 <=1 
C1325: x51+x60 <=1 
C1326: x51+x61-y51_61 <=1 
C1327: x51+x63-y51_63 <=1 
C1328: x51+x65 <=1 
C1329: x51+x66-y51_66 <=1 
C1330: x52+x54-y52_54 <=1 
C1331: x52+x55-y52_55 <=1 
C1332: x52+x58 <=1 
C1333: x52+x59-y52_59 <=1 
C1334: x52+x60-y52_60 <=1 
C1335: x52+x61 <=1 
C1336: x52+x62-y52_62 <=1 
C1337: x52+x65 <=1 
C1338: x52+x66 <=1 
C1339: x52+x67 <=1 
C1340: x53+x55 <=1 
C1341: x53+x56 <=1 
C1342: x53+x58 <=1 
C1343: x53+x59-y53_59 <=1 
C1344: x53+x61-y53_61 <=1 
C1345: x53+x64 <=1 
C1346: x53+x65-y53_65 <=1 
C1347: x53+x67-y53_67 <=1 
C1348: x54+x58-y54_58 <=1 
C1349: x54+x59 <=1 
C1350: x54+x61-y54_61 <=1 
C1351: x54+x63 <=1 
C1352: x54+x65-y54_65 <=1 
C1353: x54+x66 <=1 
C1354: x54+x67 <=1 
C1355: x55+x57-y55_57 <=1 
C1356: x55+x58-y55_58 <=1 
C1357: x55+x62-y55_62 <=1 
C1358: x55+x64 <=1 
C1359: x55+x66 <=1 
C1360: x56+x57-y56_57 <=1 
C1361: x56+x58 <=1 
C1362: x56+x59 <=1 
C1363: x56+x60 <=1 
C1364: x56+x62-y56_62 <=1 
C1365: x56+x63 <=1 
C1366: x56+x65-y56_65 <=1 
C1367: x56+x66 <=1 
C1368: x56+x67 <=1 
C1369: x57+x58-y57_58 <=1 
C1370: x57+x59-y57_59 <=1 
C1371: x57+x64-y57_64 <=1 
C1372: x57+x65-y57_65 <=1 
C1373: x57+x66 <=1 
C1374: x57+x67-y57_67 <=1 
C1375: x58+x59 <=1 
C1376: x58+x61-y58_61 <=1 
C1377: x58+x64 <=1 
C1378: x58+x65-y58_65 <=1 
C1379: x58+x66-y58_66 <=1 
C1380: x58+x67 <=1 
C1381: x59+x60 <=1 
C1382: x59+x61-y59_61 <=1 
C1383: x59+x63 <=1 
C1384: x59+x67-y59_67 <=1 
C1385: x60+x61-y60_61 <=1 
C1386: x60+x63-y60_63 <=1 
C1387: x60+x65-y60_65 <=1 
C1388: x60+x66 <=1 
C1389: x60+x67 <=1 
C1390: x61+x62 <=1 
C1391: x61+x64 <=1 
C1392: x61+x65-y61_65 <=1 
C1393: x61+x66 <=1 
C1394: x61+x67 <=1 
C1395: x62+x63 <=1 
C1396: x62+x65-y62_65 <=1 
C1397: x62+x66-y62_66 <=1 
C1398: x62+x67-y62_67 <=1 
C1399: x63+x65 <=1 
C1400: x63+x66 <=1 
C1401: x63+x67 <=1 
C1402: x64+x65-y64_65 <=1 
C1403: x65+x66-y65_66 <=1 
C1404: x66+x67 <=1 

binary
x0
x1
x2
x3
x4
x5
x6
x7
x8
x9
x10
x11
x12
x13
x14
x15
x16
x17
x18
x19
x20
x21
x22
x23
x24
x25
x26
x27
x28
x29
x30
x31
x32
x33
x34
x35
x36
x37
x38
x39
x40
x41
x42
x43
x44
x45
x46
x47
x48
x49
x50
x51
x52
x53
x54
x55
x56
x57
x58
x59
x60
x61
x62
x63
x64
x65
x66
x67
